p cnf 24 134
-1 -2 0
-1 -3 0
-2 -1 0
-2 -3 0
-3 -1 0
-3 -2 0
-4 -5 0
-4 -6 0
-5 -4 0
-5 -6 0
-6 -4 0
-6 -5 0
-7 -8 0
-7 -9 0
-8 -7 0
-8 -9 0
-9 -7 0
-9 -8 0
-10 -11 0
-10 -12 0
-11 -10 0
-11 -12 0
-12 -10 0
-12 -11 0
-13 -14 0
-13 -15 0
-14 -13 0
-14 -15 0
-15 -13 0
-15 -14 0
-16 -17 0
-16 -18 0
-17 -16 0
-17 -18 0
-18 -16 0
-18 -17 0
-19 -20 0
-19 -21 0
-20 -19 0
-20 -21 0
-21 -19 0
-21 -20 0
-22 -23 0
-22 -24 0
-23 -22 0
-23 -24 0
-24 -22 0
-24 -23 0
-1 -7 0
-2 -8 0
-3 -9 0
-1 -10 0
-2 -11 0
-3 -12 0
-1 -13 0
-2 -14 0
-3 -15 0
-1 -22 0
-2 -23 0
-3 -24 0
-4 -19 0
-5 -20 0
-6 -21 0
-7 -1 0
-8 -2 0
-9 -3 0
-7 -10 0
-8 -11 0
-9 -12 0
-7 -13 0
-8 -14 0
-9 -15 0
-7 -16 0
-8 -17 0
-9 -18 0
-7 -22 0
-8 -23 0
-9 -24 0
-10 -1 0
-11 -2 0
-12 -3 0
-10 -7 0
-11 -8 0
-12 -9 0
-10 -16 0
-11 -17 0
-12 -18 0
-10 -22 0
-11 -23 0
-12 -24 0
-13 -1 0
-14 -2 0
-15 -3 0
-13 -7 0
-14 -8 0
-15 -9 0
-13 -16 0
-14 -17 0
-15 -18 0
-16 -7 0
-17 -8 0
-18 -9 0
-16 -10 0
-17 -11 0
-18 -12 0
-16 -13 0
-17 -14 0
-18 -15 0
-16 -19 0
-17 -20 0
-18 -21 0
-19 -4 0
-20 -5 0
-21 -6 0
-19 -16 0
-20 -17 0
-21 -18 0
-22 -1 0
-23 -2 0
-24 -3 0
-22 -7 0
-23 -8 0
-24 -9 0
-22 -10 0
-23 -11 0
-24 -12 0
1 2 3 0
4 5 6 0
7 8 9 0
10 11 12 0
13 14 15 0
16 17 18 0
19 20 21 0
22 23 24 0
